data/solutions/recovery/wellformed/intermediate/binding/wellformed_intermediate_instance84/97.sol
Elapsed time: 0.16
Upper bound: 161835.0
Planning weighted value: 8617229272.0
C[0]=161835.0
C[1]=161666.0
C[2]=161638.0
C[3]=160912.0
C[4]=160895.0
C[5]=160662.0
C[6]=159273.0
C[7]=158830.0
C[8]=156195.0
C[9]=155936.0
C[10]=154704.0
C[11]=153996.0
C[12]=146779.0
C[13]=141597.0
C[14]=0.0
C[15]=0.0
y[0]=0
y[1]=5
y[2]=1
y[3]=7
y[4]=3
y[5]=11
y[6]=13
y[7]=11
y[8]=3
y[9]=12
y[10]=4
y[11]=1
y[12]=6
y[13]=9
y[14]=2
y[15]=0
y[16]=6
y[17]=2
y[18]=6
y[19]=2
y[20]=0
y[21]=0
y[22]=12
y[23]=0
y[24]=1
y[25]=0
y[26]=13
y[27]=1
y[28]=8
y[29]=8
y[30]=6
y[31]=11
y[32]=12
y[33]=4
y[34]=0
y[35]=2
y[36]=8
y[37]=9
y[38]=3
y[39]=1
y[40]=13
y[41]=0
y[42]=0
y[43]=0
y[44]=1
y[45]=5
y[46]=3
y[47]=6
y[48]=8
y[49]=2
y[50]=8
y[51]=3
y[52]=13
y[53]=1
y[54]=0
y[55]=0
y[56]=0
y[57]=0
y[58]=0
y[59]=4
y[60]=0
y[61]=4
y[62]=0
y[63]=0
y[64]=0
y[65]=4
y[66]=7
y[67]=0
y[68]=7
y[69]=0
y[70]=0
y[71]=0
y[72]=2
y[73]=3
y[74]=4
y[75]=0
y[76]=0
y[77]=0
y[78]=7
y[79]=8
y[80]=10
y[81]=4
y[82]=10
y[83]=11
y[84]=1
y[85]=5
y[86]=12
y[87]=2
y[88]=10
y[89]=1
y[90]=13
y[91]=8
y[92]=11
y[93]=6
y[94]=4
y[95]=9
y[96]=0
y[97]=9
y[98]=1
y[99]=0
y[100]=11
y[101]=0
y[102]=8
y[103]=0
y[104]=6
y[105]=9
y[106]=9
y[107]=0
y[108]=0
y[109]=5
y[110]=0
y[111]=3
y[112]=8
y[113]=0
y[114]=0
y[115]=1
y[116]=10
y[117]=8
y[118]=1
y[119]=11
y[120]=6
y[121]=0
y[122]=13
y[123]=0
y[124]=11
y[125]=10
y[126]=4
y[127]=5
y[128]=13
y[129]=7
y[130]=9
y[131]=3
y[132]=0
y[133]=0
y[134]=11
y[135]=9
y[136]=10
y[137]=0
y[138]=5
y[139]=2
y[140]=8
y[141]=3
y[142]=8
y[143]=0
y[144]=8
y[145]=5
y[146]=6
y[147]=6
y[148]=7
y[149]=8
y[150]=4
y[151]=11
y[152]=0
y[153]=0
y[154]=2
y[155]=2
y[156]=0
y[157]=8
y[158]=9
y[159]=8
y[160]=13
y[161]=13
y[162]=3
y[163]=12
y[164]=12
y[165]=0
y[166]=3
y[167]=4
y[168]=0
y[169]=6
y[170]=0
y[171]=9
y[172]=8
y[173]=12
y[174]=6
y[175]=13
y[176]=7
y[177]=0
y[178]=0
y[179]=3
y[180]=7
y[181]=13
y[182]=0
y[183]=5
y[184]=8
y[185]=7
y[186]=0
y[187]=4
y[188]=9
y[189]=10
y[190]=1
y[191]=5
y[192]=6
y[193]=8
y[194]=4
y[195]=1
y[196]=10
y[197]=12
y[198]=1
y[199]=0
y[200]=8
y[201]=1
y[202]=10
y[203]=1
y[204]=1
y[205]=4
y[206]=4
y[207]=11
y[208]=5
y[209]=2
y[210]=5
y[211]=11
y[212]=9
y[213]=11
