data/solutions/recovery/wellformed/intermediate/binding/wellformed_intermediate_instance84/97.log

Log started (V12.6.3.0) Fri Apr 20 22:27:29 2018

New value for default parallel thread count: 1

Problem '/tmp/tmptDv4vi.pyomo.lp' read.
Read time = 0.08 sec. (7.92 ticks)

Problem name         : /tmp/tmptDv4vi.pyomo.lp
Objective sense      : Minimize
Variables            :    3442  [Nneg: 1,  Binary: 3424,  General Integer: 17]
Objective nonzeros   :       1
Linear constraints   :     463  [Less: 230,  Equal: 233]
  Nonzeros           :  584997
  RHS nonzeros       :     215

Variables            : Min LB: 0.000000         Max UB: 1.000000       
Objective nonzeros   : Min   : 1.000000         Max   : 1.000000       
Linear constraints   :
  Nonzeros           : Min   : 1.000000         Max   : 19973.00       
  RHS nonzeros       : Min   : 1.000000         Max   : 1.000000       
Tried aggregator 2 times.
MIP Presolve eliminated 402 rows and 2965 columns.
Aggregator did 14 substitutions.
Reduced MIP has 47 rows, 463 columns, and 938 nonzeros.
Reduced MIP has 462 binaries, 1 generals, 0 SOSs, and 0 indicators.
Presolve time = 0.02 sec. (37.05 ticks)
Found incumbent of value 575520.000000 after 0.04 sec. (50.79 ticks)
Probing time = 0.00 sec. (0.54 ticks)
Tried aggregator 1 time.
Reduced MIP has 47 rows, 463 columns, and 938 nonzeros.
Reduced MIP has 462 binaries, 1 generals, 0 SOSs, and 0 indicators.
Presolve time = 0.00 sec. (0.78 ticks)
Probing time = 0.00 sec. (0.54 ticks)
Clique table members: 33.
MIP emphasis: balance optimality and feasibility.
MIP search method: dynamic search.
Parallel mode: none, using 1 thread.
Root relaxation solution time = 0.00 sec. (0.77 ticks)

        Nodes                                         Cuts/
   Node  Left     Objective  IInf  Best Integer    Best Bound    ItCnt     Gap

*     0+    0                       575520.0000   161835.0000            71.88%
      0     0   161835.0000    17   575520.0000   161835.0000       74   71.88%
*     0+    0                       161835.0000   161835.0000             0.00%
      0     0        cutoff         161835.0000   161835.0000       74    0.00%
Elapsed time = 0.05 sec. (54.18 ticks, tree = 0.01 MB, solutions = 2)

Root node processing (before b&c):
  Real time             =    0.05 sec. (54.30 ticks)
Sequential b&c:
  Real time             =    0.00 sec. (0.00 ticks)
                          ------------
Total (root+branch&cut) =    0.05 sec. (54.30 ticks)

Solution pool: 2 solutions saved.

MIP - Integer optimal solution:  Objective =  1.6183500000e+05
Solution time =    0.05 sec.  Iterations = 74  Nodes = 0
Deterministic time = 54.31 ticks  (1180.31 ticks/sec)


Incumbent solution written to file '/tmp/tmpWS1aY6.cplex.sol'.
